c
c Generated WCNF file
c
p wcnf 121 556 35356
35356 16 0
35356 -17 1 0
35356 -17 2 0
35356 17 -1 -2 0
35356 -18 1 0
35356 -18 3 0
35356 18 -1 -3 0
35356 -19 1 0
35356 -19 4 0
35356 19 -1 -4 0
35356 -20 1 0
35356 -20 5 0
35356 20 -1 -5 0
35356 -21 1 0
35356 -21 6 0
35356 21 -1 -6 0
35356 -22 1 0
35356 -22 7 0
35356 22 -1 -7 0
35356 -23 1 0
35356 -23 8 0
35356 23 -1 -8 0
35356 -24 1 0
35356 -24 9 0
35356 24 -1 -9 0
35356 -25 1 0
35356 -25 10 0
35356 25 -1 -10 0
35356 -26 1 0
35356 -26 11 0
35356 26 -1 -11 0
35356 -27 1 0
35356 -27 12 0
35356 27 -1 -12 0
35356 -28 1 0
35356 -28 13 0
35356 28 -1 -13 0
35356 -29 1 0
35356 -29 14 0
35356 29 -1 -14 0
35356 -30 1 0
35356 -30 15 0
35356 30 -1 -15 0
35356 -31 2 0
35356 -31 3 0
35356 31 -2 -3 0
35356 -32 2 0
35356 -32 4 0
35356 32 -2 -4 0
35356 -33 2 0
35356 -33 5 0
35356 33 -2 -5 0
35356 -34 2 0
35356 -34 6 0
35356 34 -2 -6 0
35356 -35 2 0
35356 -35 7 0
35356 35 -2 -7 0
35356 -36 2 0
35356 -36 8 0
35356 36 -2 -8 0
35356 -37 2 0
35356 -37 9 0
35356 37 -2 -9 0
35356 -38 2 0
35356 -38 10 0
35356 38 -2 -10 0
35356 -39 2 0
35356 -39 11 0
35356 39 -2 -11 0
35356 -40 2 0
35356 -40 12 0
35356 40 -2 -12 0
35356 -41 2 0
35356 -41 13 0
35356 41 -2 -13 0
35356 -42 2 0
35356 -42 14 0
35356 42 -2 -14 0
35356 -43 2 0
35356 -43 15 0
35356 43 -2 -15 0
35356 -44 3 0
35356 -44 4 0
35356 44 -3 -4 0
35356 -45 3 0
35356 -45 5 0
35356 45 -3 -5 0
35356 -46 3 0
35356 -46 6 0
35356 46 -3 -6 0
35356 -47 3 0
35356 -47 7 0
35356 47 -3 -7 0
35356 -48 3 0
35356 -48 8 0
35356 48 -3 -8 0
35356 -49 3 0
35356 -49 9 0
35356 49 -3 -9 0
35356 -50 3 0
35356 -50 10 0
35356 50 -3 -10 0
35356 -51 3 0
35356 -51 11 0
35356 51 -3 -11 0
35356 -52 3 0
35356 -52 12 0
35356 52 -3 -12 0
35356 -53 3 0
35356 -53 13 0
35356 53 -3 -13 0
35356 -54 3 0
35356 -54 14 0
35356 54 -3 -14 0
35356 -55 3 0
35356 -55 15 0
35356 55 -3 -15 0
35356 -56 4 0
35356 -56 5 0
35356 56 -4 -5 0
35356 -57 4 0
35356 -57 6 0
35356 57 -4 -6 0
35356 -58 4 0
35356 -58 7 0
35356 58 -4 -7 0
35356 -59 4 0
35356 -59 8 0
35356 59 -4 -8 0
35356 -60 4 0
35356 -60 9 0
35356 60 -4 -9 0
35356 -61 4 0
35356 -61 10 0
35356 61 -4 -10 0
35356 -62 4 0
35356 -62 11 0
35356 62 -4 -11 0
35356 -63 4 0
35356 -63 12 0
35356 63 -4 -12 0
35356 -64 4 0
35356 -64 13 0
35356 64 -4 -13 0
35356 -65 4 0
35356 -65 14 0
35356 65 -4 -14 0
35356 -66 4 0
35356 -66 15 0
35356 66 -4 -15 0
35356 -67 5 0
35356 -67 6 0
35356 67 -5 -6 0
35356 -68 5 0
35356 -68 7 0
35356 68 -5 -7 0
35356 -69 5 0
35356 -69 8 0
35356 69 -5 -8 0
35356 -70 5 0
35356 -70 9 0
35356 70 -5 -9 0
35356 -71 5 0
35356 -71 10 0
35356 71 -5 -10 0
35356 -72 5 0
35356 -72 11 0
35356 72 -5 -11 0
35356 -73 5 0
35356 -73 12 0
35356 73 -5 -12 0
35356 -74 5 0
35356 -74 13 0
35356 74 -5 -13 0
35356 -75 5 0
35356 -75 14 0
35356 75 -5 -14 0
35356 -76 5 0
35356 -76 15 0
35356 76 -5 -15 0
35356 -77 6 0
35356 -77 7 0
35356 77 -6 -7 0
35356 -78 6 0
35356 -78 8 0
35356 78 -6 -8 0
35356 -79 6 0
35356 -79 9 0
35356 79 -6 -9 0
35356 -80 6 0
35356 -80 10 0
35356 80 -6 -10 0
35356 -81 6 0
35356 -81 11 0
35356 81 -6 -11 0
35356 -82 6 0
35356 -82 12 0
35356 82 -6 -12 0
35356 -83 6 0
35356 -83 13 0
35356 83 -6 -13 0
35356 -84 6 0
35356 -84 14 0
35356 84 -6 -14 0
35356 -85 6 0
35356 -85 15 0
35356 85 -6 -15 0
35356 -86 7 0
35356 -86 8 0
35356 86 -7 -8 0
35356 -87 7 0
35356 -87 9 0
35356 87 -7 -9 0
35356 -88 7 0
35356 -88 10 0
35356 88 -7 -10 0
35356 -89 7 0
35356 -89 11 0
35356 89 -7 -11 0
35356 -90 7 0
35356 -90 12 0
35356 90 -7 -12 0
35356 -91 7 0
35356 -91 13 0
35356 91 -7 -13 0
35356 -92 7 0
35356 -92 14 0
35356 92 -7 -14 0
35356 -93 7 0
35356 -93 15 0
35356 93 -7 -15 0
35356 -94 8 0
35356 -94 9 0
35356 94 -8 -9 0
35356 -95 8 0
35356 -95 10 0
35356 95 -8 -10 0
35356 -96 8 0
35356 -96 11 0
35356 96 -8 -11 0
35356 -97 8 0
35356 -97 12 0
35356 97 -8 -12 0
35356 -98 8 0
35356 -98 13 0
35356 98 -8 -13 0
35356 -99 8 0
35356 -99 14 0
35356 99 -8 -14 0
35356 -100 8 0
35356 -100 15 0
35356 100 -8 -15 0
35356 -101 9 0
35356 -101 10 0
35356 101 -9 -10 0
35356 -102 9 0
35356 -102 11 0
35356 102 -9 -11 0
35356 -103 9 0
35356 -103 12 0
35356 103 -9 -12 0
35356 -104 9 0
35356 -104 13 0
35356 104 -9 -13 0
35356 -105 9 0
35356 -105 14 0
35356 105 -9 -14 0
35356 -106 9 0
35356 -106 15 0
35356 106 -9 -15 0
35356 -107 10 0
35356 -107 11 0
35356 107 -10 -11 0
35356 -108 10 0
35356 -108 12 0
35356 108 -10 -12 0
35356 -109 10 0
35356 -109 13 0
35356 109 -10 -13 0
35356 -110 10 0
35356 -110 14 0
35356 110 -10 -14 0
35356 -111 10 0
35356 -111 15 0
35356 111 -10 -15 0
35356 -112 11 0
35356 -112 12 0
35356 112 -11 -12 0
35356 -113 11 0
35356 -113 13 0
35356 113 -11 -13 0
35356 -114 11 0
35356 -114 14 0
35356 114 -11 -14 0
35356 -115 11 0
35356 -115 15 0
35356 115 -11 -15 0
35356 -116 12 0
35356 -116 13 0
35356 116 -12 -13 0
35356 -117 12 0
35356 -117 14 0
35356 117 -12 -14 0
35356 -118 12 0
35356 -118 15 0
35356 118 -12 -15 0
35356 -119 13 0
35356 -119 14 0
35356 119 -13 -14 0
35356 -120 13 0
35356 -120 15 0
35356 120 -13 -15 0
35356 -121 14 0
35356 -121 15 0
35356 121 -14 -15 0
20924 1 0
35346 -1 0
27374 17 0
35346 -17 0
43336 18 0
35346 -18 0
45976 19 0
35346 -19 0
42636 20 0
35346 -20 0
33340 21 0
35346 -21 0
35826 22 0
35346 -22 0
32570 23 0
35346 -23 0
44804 24 0
35346 -24 0
33854 25 0
35346 -25 0
31190 26 0
35346 -26 0
33242 27 0
35346 -27 0
36566 28 0
35346 -28 0
33298 29 0
35346 -29 0
34196 30 0
35346 -30 0
10672 2 0
35346 -2 0
49176 31 0
35346 -31 0
36936 32 0
35346 -32 0
34930 33 0
35346 -33 0
33952 34 0
35346 -34 0
37252 35 0
35346 -35 0
23010 36 0
35346 -36 0
34460 37 0
35346 -37 0
28444 38 0
35346 -38 0
27138 39 0
35346 -39 0
46346 40 0
35346 -40 0
37266 41 0
35346 -41 0
39846 42 0
35346 -42 0
33552 43 0
35346 -43 0
30686 3 0
35346 -3 0
27410 44 0
35346 -44 0
27070 45 0
35346 -45 0
36504 46 0
35346 -46 0
30326 47 0
35346 -47 0
41556 48 0
35346 -48 0
32818 49 0
35346 -49 0
40470 50 0
35346 -50 0
39400 51 0
35346 -51 0
30116 52 0
35346 -52 0
34952 53 0
35346 -53 0
34082 54 0
35346 -54 0
36036 55 0
35346 -55 0
25646 4 0
35346 -4 0
24356 56 0
35346 -56 0
30612 57 0
35346 -57 0
28782 58 0
35346 -58 0
36770 59 0
35346 -59 0
31648 60 0
35346 -60 0
35320 61 0
35346 -61 0
39360 62 0
35346 -62 0
34900 63 0
35346 -63 0
34640 64 0
35346 -64 0
36778 65 0
35346 -65 0
36128 66 0
35346 -66 0
26586 5 0
35346 -5 0
31172 67 0
35346 -67 0
35324 68 0
35346 -68 0
35350 69 0
35346 -69 0
35284 70 0
35346 -70 0
31550 71 0
35346 -71 0
36704 72 0
35346 -72 0
36156 73 0
35346 -73 0
35980 74 0
35346 -74 0
39140 75 0
35346 -75 0
34012 76 0
35346 -76 0
28451 6 0
35346 -6 0
37932 77 0
35346 -77 0
36782 78 0
35346 -78 0
41710 79 0
35346 -79 0
31196 80 0
35346 -80 0
42488 81 0
35346 -81 0
30960 82 0
35346 -82 0
34456 83 0
35346 -83 0
38684 84 0
35346 -84 0
35944 85 0
35346 -85 0
29232 7 0
35346 -7 0
35890 86 0
35346 -86 0
31896 87 0
35346 -87 0
39052 88 0
35346 -88 0
36872 89 0
35346 -89 0
34284 90 0
35346 -90 0
34952 91 0
35346 -91 0
33638 92 0
35346 -92 0
36726 93 0
35346 -93 0
21558 8 0
35346 -8 0
29774 94 0
35346 -94 0
29782 95 0
35346 -95 0
27810 96 0
35346 -96 0
44798 97 0
35346 -97 0
36998 98 0
35346 -98 0
39852 99 0
35346 -99 0
33874 100 0
35346 -100 0
23363 9 0
35346 -9 0
35592 101 0
35346 -101 0
33972 102 0
35346 -102 0
39852 103 0
35346 -103 0
34976 104 0
35346 -104 0
37998 105 0
35346 -105 0
36220 106 0
35346 -106 0
29947 10 0
35346 -10 0
32956 107 0
35346 -107 0
38968 108 0
35346 -108 0
36212 109 0
35346 -109 0
39636 110 0
35346 -110 0
33598 111 0
35346 -111 0
23564 11 0
35346 -11 0
44766 112 0
35346 -112 0
37566 113 0
35346 -113 0
36816 114 0
35346 -114 0
33138 115 0
35346 -115 0
40016 12 0
35346 -12 0
33142 116 0
35346 -116 0
31508 117 0
35346 -117 0
37462 118 0
35346 -118 0
36428 13 0
35346 -13 0
34692 119 0
35346 -119 0
36082 120 0
35346 -120 0
35788 14 0
35346 -14 0
36404 121 0
35346 -121 0
33805 15 0
35346 -15 0
